
  22   10
  10   10   10   10   10   10   10   10   10   10

   0   0   0   0   0   0   0   0   0   0   0   4 2 3 4 5 
   3  10  10  10  10  10  10  10  10  10  10   2 7 6 
   9  10  10  10  10  10  10  10  10  10  10   2 10 7 
   4  10  10  10  10  10  10  10  10  10  10   2 8 6 
   9  10  10  10  10  10  10  10  10  10  10   1 6 
   6  10  10  10  10  10  10  10  10  10  10   3 11 10 9 
   4  10  10  10  10  10  10  10  10  10  10   2 11 8 
   7  10  10  10  10  10  10  10  10  10  10   2 15 9 
   8  10  10  10  10  10  10  10  10  10  10   1 12 
   9  10  10  10  10  10  10  10  10  10  10   1 12 
   1  10  10  10  10  10  10  10  10  10  10   2 15 14 
   8  10  10  10  10  10  10  10  10  10  10   1 13 
   5  10  10  10  10  10  10  10  10  10  10   2 18 14 
  10  10  10  10  10  10  10  10  10  10  10   3 21 20 16 
   8  10  10  10  10  10  10  10  10  10  10   2 18 16 
   1  10  10  10  10  10  10  10  10  10  10   1 17 
   1  10  10  10  10  10  10  10  10  10  10   1 19 
   9  10  10  10  10  10  10  10  10  10  10   1 19 
   8  10  10  10  10  10  10  10  10  10  10   1 22
   4  10  10  10  10  10  10  10  10  10  10   1 22
   7  10  10  10  10  10  10  10  10  10  10   1 22
   0   0   0   0   0   0   0   0   0   0   0   0 
